NAME : ../File/prFile/tspFile/tsp_file19.tsp.423.tour
COMMENT : Length = 423
COMMENT : Found by LKH-3 [Keld Helsgaun] Wed Jun 14 17:47:17 2023
TYPE : TOUR
DIMENSION : 30
TOUR_SECTION
1
9
27
19
8
20
15
25
16
17
22
14
11
18
7
30
24
4
23
13
26
29
5
10
6
28
2
21
3
12
-1
EOF
